(set-info :source  loris-7.ddns.comp.nus.edu.sg/~project/hip/) 
;Variables declarations
(declare-fun Anon_6050 () Int)
(declare-fun n2_6049 () Int)
(declare-fun n1_6045 () Int)
(declare-fun height_118_4744 () Int)
(declare-fun v_int_118_6038 () Int)
(declare-fun b_4599 () Int)
(declare-fun n_4598 () Int)
(declare-fun n_4487 () Int)
(declare-fun v_int_108_4474 () Int)
(declare-fun n_4128 () Int)
(declare-fun b_4108 () Int)
(declare-fun n () Int)
(declare-fun resn_4091 () Int)
(declare-fun resb_4092 () Int)
(declare-fun tn_4067 () Int)
(declare-fun b () Int)
(declare-fun n1_3754 () Int)
(declare-fun n2_3758 () Int)
(declare-fun n_3750 () Int)
(declare-fun tn () Int)
;Relations declarations
;Axioms assertions
;Antecedent
(assert (exists ((flted_76_6071 Int)) (= (+ flted_76_6071 n2_6049) (+ 1 n1_6045))))
(assert (exists ((max_6070 Int)) (and (= v_int_118_6038 (+ max_6070 1)) (or (and (= max_6070 n1_6045) (>= n1_6045 n2_6049)) (and (= max_6070 n2_6049) (< n1_6045 n2_6049))))))
(assert (= Anon_6050 b_4599))
(assert (= n2_6049 n_4598))
(assert (= n1_6045 n_4487))
(assert (not (= v_int_108_4474 2)))
(assert (<= 0 n_4487))
(assert (<= b_4599 2))
(assert (<= 0 b_4599))
(assert (<= 0 n_4598))
(assert (= height_118_4744 n_3750))
(assert (= v_int_118_6038 (+ 1 n_4487)))
(assert (<= n_4598 n_4487))
(assert (<= b_4108 2))
(assert (<= 0 b_4108))
(assert (<= 0 n))
(assert (= b_4599 b_4108))
(assert (= n_4598 n))
(assert (<= 0 n_4128))
(assert (= n_4487 n_4128))
(assert (= (+ v_int_108_4474 n_4128) n))
(assert (<= 0 n1_3754))
(assert (= n_4128 n1_3754))
(assert (<= resb_4092 2))
(assert (<= 0 resb_4092))
(assert (<= 0 resn_4091))
(assert (= b_4108 resb_4092))
(assert (= n resn_4091))
(assert (<= 0 tn_4067))
(assert (or (= tn_4067 resn_4091) (and (= resn_4091 (+ 1 tn_4067)) (not (= resb_4092 1)))))
(assert (< 0 tn_4067))
(assert (<= 0 n2_3758))
(assert (= tn_4067 n2_3758))
(assert (= (+ b n2_3758) (+ 1 n1_3754)))
(assert (<= n1_3754 (+ 1 n2_3758)))
(assert (<= (+ 0 n2_3758) (+ n1_3754 1)))
(assert (exists ((max_6069 Int)) (and (= tn (+ max_6069 1)) (or (and (= max_6069 n1_3754) (>= n1_3754 n2_3758)) (and (= max_6069 n2_3758) (< n1_3754 n2_3758))))))
(assert (= n_3750 tn))
;Negation of Consequence
(assert (not (<= 0 tn)))
(check-sat)